<number of tasks>
50

<cycle time>
1000

<order strength>
0.897


<task times>
1 160
2 96
3 91
4 235
5 158
6 102
7 51
8 81
9 221
10 111
11 31
12 63
13 188
14 113
15 40
16 124
17 100
18 82
19 173
20 97
21 201
22 111
23 74
24 263
25 114
26 60
27 173
28 245
29 257
30 69
31 160
32 104
33 30
34 72
35 259
36 200
37 47
38 101
39 66
40 210
41 238
42 130
43 139
44 206
45 67
46 163
47 81
48 111
49 276
50 77

<precedence relations>
1,6
2,4
2,5
2,6
2,7
3,4
3,5
3,6
3,7
4,8
4,9
4,10
5,8
5,9
5,10
6,8
6,9
6,10
7,8
7,9
7,10
8,11
8,12
9,11
9,12
10,11
10,12
11,13
11,14
12,13
12,14
13,15
13,16
14,15
14,16
15,17
15,18
15,19
16,17
16,18
16,19
17,20
17,21
17,22
17,23
18,20
18,21
18,22
18,23
19,20
19,23
20,24
21,24
22,24
23,24
24,25
24,26
24,27
25,28
25,29
25,30
26,28
26,29
26,30
27,28
27,29
27,30
28,31
28,32
29,31
29,32
30,50
31,33
31,35
32,34
32,35
32,38
32,39
33,36
33,38
34,41
35,37
36,39
37,40
37,41
38,44
39,41
39,42
39,44
40,43
40,46
42,45
43,45
44,45
44,46
45,47
45,48
45,50
46,48
46,49
46,50

<end>
